sat
(:max-memory         18.52
 :memory             18.42
 :nlsat-arith-var    3
 :nlsat-atoms        9
 :nlsat-bool-var     1
 :nlsat-clauses      9
 :nlsat-propagations 9
 :nlsat-stages       4
 :num-allocs         60179
 :rlimit-count       5268
 :time               0.01
 :total-time         0.02)
